; CiPR-FTQC proof obligations for case_study_complex_random_seed23
; This file asserts the negation of conservative effect bounds.
; A theorem prover/SMT solver should answer unsat.
(set-logic ALL)
(define-fun total_err () Real 4257950000000001/5000000000000000000)
(define-fun sum_err () Real (+ 1/100000 1/100000 1/100000 1/100000 1/100000 1/100000 1/100000 14000000000000001/100000000000000000000 1/200000 1/200000 0 1/40000 10500000000000001/500000000000000000000 1/31250 7/200000000 1/40000 1/10000 1/40000 7/200000000 6000000000000001/50000000000000000000 1/125000 21/200000 0 1/50000000 20750000000000003/500000000000000000000 1/10000 1/125000 1/200000 1/125000 1/125000))
(assert (not (>= total_err sum_err)))
(check-sat)
(reset-assertions)
(define-fun total_accept () Real 107449490112931/400000000000000)
(define-fun sum_accept () Real (* 1 1 1 1 1 1 1 1 1 1 1 499/500 9801/10000 9801495006250001/10000000000000000 197/200 499/500 7/10 499/500 197/200 1 1 7/10 1 22/25 96059601/100000000 7/10 1 1 1 1))
(assert (not (<= total_accept sum_accept)))
(check-sat)
(reset-assertions)
(define-fun total_cycles () Int 215)
(define-fun sum_cycles () Int (+ 2 2 2 2 2 2 2 3 1 1 0 9 13 9 6 9 25 9 6 3 2 26 0 34 13 25 2 1 2 2))
(assert (not (>= total_cycles sum_cycles)))
(check-sat)
(reset-assertions)
(define-fun total_factory_count () Int 9)
(define-fun sum_factory_count () Int (+ 0 0 0 0 0 0 0 0 0 0 0 1 0 0 1 1 1 1 1 0 0 1 0 1 0 1 0 0 0 0))
(assert (not (>= total_factory_count sum_factory_count)))
(check-sat)
(reset-assertions)
(define-fun total_switch_count () Int 6)
(define-fun sum_switch_count () Int (+ 0 0 0 0 0 0 0 0 0 0 0 0 2 2 0 0 0 0 0 0 0 0 0 0 2 0 0 0 0 0))
(assert (not (>= total_switch_count sum_switch_count)))
(check-sat)
(reset-assertions)
(define-fun total_two_qubit_gates () Int 901)
(define-fun sum_two_qubit_gates () Int (+ 0 0 0 0 0 0 0 0 0 0 0 16 180 7 60 16 25 16 60 0 0 25 0 96 375 25 0 0 0 0))
(assert (not (>= total_two_qubit_gates sum_two_qubit_gates)))
(check-sat)
(reset-assertions)
